c User generated cnf file
p cnf 13 39
12 7 -12 0 
8 8 -11 0 
11 -3 8 0 
1 13 -5 0 
8 -1 4 0 
9 -9 6 0 
13 3 -3 0 
5 -5 13 0 
2 10 -13 0 
9 -1 10 0 
2 11 -12 0 
9 9 -12 0 
8 -7 5 0 
6 -4 7 0 
1 -12 4 0 
10 -6 2 0 
1 -12 5 0 
7 -8 8 0 
2 -8 8 0 
5 10 -6 0 
6 -2 2 0 
11 -1 1 0 
8 -10 2 0 
6 -10 2 0 
3 -13 4 0 
8 -7 6 0 
13 -12 1 0 
13 -5 8 0 
8 -5 12 0 
4 5 -3 0 
4 4 -7 0 
12 7 -8 0 
4 10 -5 0 
3 7 -6 0 
9 6 -11 0 
7 -12 5 0 
10 -2 9 0 
8 -4 3 0 
12 -8 2 0 
